# Generated by ConicBenchmarkUtilities.jl
VER
2

OBJSENSE
MIN

VAR
515 1
F 515

INT
62
11
12
13
14
15
16
17
18
19
20
21
22
23
24
25
26
27
28
29
30
31
32
33
34
56
57
58
59
60
61
62
63
64
65
66
67
68
69
70
71
72
73
74
75
76
77
78
79
80
81
82
83
84
85
226
227
228
229
230
231
232
233

CON
1358 1318
L= 1
L= 1
L= 1
L= 1
L= 1
L= 1
L= 1
L= 1
L= 1
L= 1
L= 1
L= 1
L= 1
L= 1
L= 1
L= 1
L= 1
L= 1
L= 1
L= 1
L= 1
L= 1
L= 1
L= 1
L= 1
L= 1
L= 1
L= 1
L= 1
L= 1
L= 1
L= 1
L= 1
L= 1
L= 1
L= 1
L+ 1
L+ 1
L+ 1
L+ 1
L+ 1
L+ 1
L+ 1
L+ 1
L+ 1
L+ 1
L+ 1
L= 1
L= 1
L= 1
L= 1
L= 1
L= 1
L= 1
L= 1
L= 1
L= 1
L= 1
L= 1
L= 1
L= 1
L= 1
L= 1
L= 1
L= 1
L= 1
L= 1
L+ 1
L+ 1
L+ 1
L= 1
L= 1
L= 1
L= 1
L= 1
L= 1
L= 1
L= 1
L= 1
L= 1
L= 1
L= 1
L= 1
L= 1
L= 1
L= 1
L= 1
L= 1
L+ 1
L+ 1
L+ 1
L+ 1
L+ 1
L+ 1
L+ 1
L+ 1
L+ 1
L+ 1
L+ 1
L+ 1
L+ 1
L+ 1
L+ 1
L+ 1
L+ 1
L+ 1
L+ 1
L+ 1
L+ 1
L+ 1
L+ 1
L+ 1
L+ 1
L+ 1
L+ 1
L+ 1
L+ 1
L+ 1
L+ 1
L+ 1
L+ 1
L+ 1
L+ 1
L+ 1
L+ 1
L+ 1
L+ 1
L+ 1
L+ 1
L+ 1
L+ 1
L+ 1
L+ 1
L+ 1
L+ 1
L+ 1
L+ 1
L+ 1
L+ 1
L+ 1
L+ 1
L+ 1
L+ 1
L+ 1
L+ 1
L+ 1
L+ 1
L+ 1
L+ 1
L+ 1
L+ 1
L+ 1
L+ 1
L+ 1
L+ 1
L+ 1
L+ 1
L+ 1
L+ 1
L+ 1
L= 1
L= 1
L= 1
L= 1
L= 1
L= 1
L= 1
L= 1
L= 1
L= 1
L= 1
L= 1
L= 1
L= 1
L= 1
L= 1
L= 1
L= 1
L= 1
L= 1
L= 1
L= 1
L= 1
L= 1
L= 1
L= 1
L= 1
L= 1
L= 1
L= 1
L= 1
L= 1
L= 1
L= 1
L= 1
L= 1
L= 1
L= 1
L= 1
L= 1
L= 1
L= 1
L= 1
L= 1
L= 1
L= 1
L= 1
L= 1
L= 1
L= 1
L= 1
L+ 1
L+ 1
L+ 1
L+ 1
L+ 1
L+ 1
L+ 1
L+ 1
L+ 1
L+ 1
L+ 1
L+ 1
L+ 1
L+ 1
L+ 1
L+ 1
L+ 1
L+ 1
L+ 1
L+ 1
L+ 1
L+ 1
L+ 1
L+ 1
L+ 1
L+ 1
L+ 1
L+ 1
L+ 1
L+ 1
L+ 1
L+ 1
L+ 1
L+ 1
L+ 1
L+ 1
L+ 1
L+ 1
L+ 1
L+ 1
L+ 1
L+ 1
L+ 1
L+ 1
L+ 1
L+ 1
L+ 1
L+ 1
L+ 1
L+ 1
L+ 1
L+ 1
L+ 1
L+ 1
L+ 1
L+ 1
L+ 1
L+ 1
L+ 1
L+ 1
L+ 1
L+ 1
L+ 1
L+ 1
L+ 1
L+ 1
L+ 1
L+ 1
L+ 1
L+ 1
L+ 1
L+ 1
L+ 1
L+ 1
L+ 1
L+ 1
L= 1
L= 1
L= 1
L= 1
L= 1
L= 1
L= 1
L= 1
L+ 1
L+ 1
L+ 1
L+ 1
L+ 1
L+ 1
L+ 1
L+ 1
L+ 1
L+ 1
L+ 1
L+ 1
L+ 1
L+ 1
L+ 1
L+ 1
L+ 1
L+ 1
L+ 1
L+ 1
L+ 1
L+ 1
L+ 1
L+ 1
L+ 1
L+ 1
L+ 1
L+ 1
L+ 1
L+ 1
L+ 1
L+ 1
L= 1
L= 1
L= 1
L= 1
L= 1
L= 1
L= 1
L= 1
L= 1
L= 1
L= 1
L= 1
L= 1
L= 1
L= 1
L= 1
L= 1
L= 1
L= 1
L= 1
L= 1
L= 1
L= 1
L= 1
L= 1
L= 1
L= 1
L= 1
L= 1
L= 1
L= 1
L= 1
L+ 1
L= 1
L= 1
L= 1
L= 1
L= 1
L= 1
L= 1
L= 1
L= 1
L= 1
L= 1
L= 1
L= 1
L= 1
L= 1
L= 1
L= 1
L= 1
L= 1
L= 1
L= 1
L= 1
L= 1
L= 1
L= 1
L= 1
L= 1
L= 1
L= 1
EXP 3
L+ 1
L+ 1
L= 1
L= 1
L= 1
L= 1
L+ 1
L+ 1
L+ 1
L+ 1
EXP 3
L+ 1
L+ 1
L= 1
L= 1
L= 1
L= 1
L+ 1
L+ 1
L+ 1
L+ 1
L= 1
L= 1
L= 1
L= 1
L= 1
L+ 1
L+ 1
L+ 1
L+ 1
EXP 3
L+ 1
L+ 1
L= 1
L= 1
L= 1
L= 1
L+ 1
L+ 1
L+ 1
L+ 1
L= 1
L= 1
L= 1
L= 1
L= 1
L= 1
L= 1
L= 1
L+ 1
L+ 1
L+ 1
L+ 1
L+ 1
L+ 1
EXP 3
L+ 1
L+ 1
L= 1
L= 1
L= 1
L= 1
L+ 1
L+ 1
L+ 1
L+ 1
EXP 3
L+ 1
L+ 1
L= 1
L= 1
L= 1
L= 1
L+ 1
L+ 1
L+ 1
L+ 1
EXP 3
L+ 1
L+ 1
L= 1
L= 1
L= 1
L= 1
L+ 1
L+ 1
L+ 1
L+ 1
L= 1
L= 1
L= 1
L= 1
L= 1
L+ 1
L+ 1
L+ 1
L+ 1
L= 1
L= 1
L= 1
L= 1
L= 1
L+ 1
L+ 1
L+ 1
L+ 1
EXP 3
L+ 1
L+ 1
L= 1
L= 1
L= 1
L= 1
L+ 1
L+ 1
L+ 1
L+ 1
L= 1
L= 1
L= 1
L= 1
L= 1
L= 1
L= 1
L= 1
L+ 1
L+ 1
L+ 1
L+ 1
L+ 1
L+ 1
EXP 3
L+ 1
L+ 1
L= 1
L= 1
L= 1
L= 1
L+ 1
L+ 1
L+ 1
L+ 1
EXP 3
L+ 1
L+ 1
L= 1
L= 1
L= 1
L= 1
L+ 1
L+ 1
L+ 1
L+ 1
EXP 3
L+ 1
L+ 1
EXP 3
L+ 1
L+ 1
L= 1
L= 1
L= 1
L= 1
L= 1
L= 1
L+ 1
L+ 1
L+ 1
L+ 1
L+ 1
L+ 1
L= 1
L= 1
L= 1
L= 1
L= 1
L+ 1
L+ 1
L+ 1
L+ 1
L= 1
L= 1
L= 1
L= 1
L= 1
L+ 1
L+ 1
L+ 1
L+ 1
EXP 3
L+ 1
L+ 1
L= 1
L= 1
L= 1
L= 1
L+ 1
L+ 1
L+ 1
L+ 1
EXP 3
L+ 1
L+ 1
L= 1
L= 1
L= 1
L= 1
L+ 1
L+ 1
L+ 1
L+ 1
EXP 3
L+ 1
L+ 1
L= 1
L= 1
L= 1
L= 1
L+ 1
L+ 1
L+ 1
L+ 1
EXP 3
L+ 1
L+ 1
L= 1
L= 1
L= 1
L= 1
L+ 1
L+ 1
L+ 1
L+ 1
EXP 3
L+ 1
L+ 1
L= 1
L= 1
L= 1
L= 1
L+ 1
L+ 1
L+ 1
L+ 1
L= 1
L= 1
L= 1
L= 1
L= 1
L+ 1
L+ 1
L+ 1
L+ 1
EXP 3
L+ 1
L+ 1
L= 1
L= 1
L= 1
L= 1
L+ 1
L+ 1
L+ 1
L+ 1
L= 1
L= 1
L= 1
L= 1
L= 1
L= 1
L= 1
L= 1
L+ 1
L+ 1
L+ 1
L+ 1
L+ 1
L+ 1
EXP 3
L+ 1
L+ 1
L= 1
L= 1
L= 1
L= 1
L+ 1
L+ 1
L+ 1
L+ 1
EXP 3
L+ 1
L+ 1
L= 1
L= 1
L= 1
L= 1
L+ 1
L+ 1
L+ 1
L+ 1
EXP 3
L+ 1
L+ 1
L= 1
L= 1
L= 1
L= 1
L+ 1
L+ 1
L+ 1
L+ 1
L= 1
L= 1
L= 1
L= 1
L= 1
L+ 1
L+ 1
L+ 1
L+ 1
L= 1
L= 1
L= 1
L= 1
L= 1
L+ 1
L+ 1
L+ 1
L+ 1
L= 1
L+ 1
L+ 1
L+ 1
L+ 1
L+ 1
L+ 1
L+ 1
L+ 1
L+ 1
L+ 1
L+ 1
L+ 1
L+ 1
L+ 1
L+ 1
L+ 1
L+ 1
L+ 1
L+ 1
L+ 1
L+ 1
L+ 1
L+ 1
L+ 1
L+ 1
L+ 1
L+ 1
L+ 1
L+ 1
L+ 1
L+ 1
L+ 1
L+ 1
L+ 1
L+ 1
L+ 1
L+ 1
L+ 1
L+ 1
L+ 1
L+ 1
L+ 1
L+ 1
L+ 1
L+ 1
L+ 1
L+ 1
L+ 1
L+ 1
L+ 1
L+ 1
L+ 1
L+ 1
L+ 1
L+ 1
L+ 1
L+ 1
L+ 1
L+ 1
L+ 1
L+ 1
L+ 1
L+ 1
L+ 1
L+ 1
L+ 1
L+ 1
L+ 1
L+ 1
L+ 1
L+ 1
L+ 1
L+ 1
L+ 1
L+ 1
L+ 1
L+ 1
L+ 1
L+ 1
L+ 1
L+ 1
L+ 1
L+ 1
L+ 1
L+ 1
L+ 1
L+ 1
L+ 1
L+ 1
L+ 1
L+ 1
L+ 1
L+ 1
L+ 1
L+ 1
L+ 1
L+ 1
L+ 1
L+ 1
L+ 1
L+ 1
L+ 1
L+ 1
L+ 1
L+ 1
L+ 1
L+ 1
L+ 1
L+ 1
L+ 1
L+ 1
L+ 1
L+ 1
L+ 1
L+ 1
L+ 1
L+ 1
L+ 1
L+ 1
L+ 1
L+ 1
L+ 1
L+ 1
L+ 1
L+ 1
L+ 1
L+ 1
L+ 1
L+ 1
L+ 1
L+ 1
L+ 1
L+ 1
L+ 1
L+ 1
L+ 1
L+ 1
L+ 1
L+ 1
L+ 1
L+ 1
L+ 1
L+ 1
L+ 1
L+ 1
L+ 1
L+ 1
L+ 1
L+ 1
L+ 1
L+ 1
L+ 1
L+ 1
L+ 1
L+ 1
L+ 1
L+ 1
L+ 1
L+ 1
L+ 1
L+ 1
L+ 1
L+ 1
L+ 1
L+ 1
L+ 1
L+ 1
L+ 1
L+ 1
L+ 1
L+ 1
L+ 1
L+ 1
L+ 1
L+ 1
L+ 1
L+ 1
L+ 1
L+ 1
L+ 1
L+ 1
L+ 1
L+ 1
L+ 1
L+ 1
L+ 1
L+ 1
L+ 1
L+ 1
L+ 1
L+ 1
L+ 1
L+ 1
L+ 1
L+ 1
L+ 1
L+ 1
L+ 1
L+ 1
L+ 1
L+ 1
L+ 1
L+ 1
L+ 1
L+ 1
L+ 1
L+ 1
L+ 1
L+ 1
L+ 1
L+ 1
L+ 1
L+ 1
L+ 1
L+ 1
L+ 1
L+ 1
L+ 1
L+ 1
L+ 1
L+ 1
L+ 1
L+ 1
L+ 1
L+ 1
L+ 1
L+ 1
L+ 1
L+ 1
L+ 1
L+ 1
L+ 1
L+ 1
L+ 1
L+ 1
L+ 1
L+ 1
L+ 1
L+ 1
L+ 1
L+ 1
L+ 1
L+ 1
L+ 1
L+ 1
L+ 1
L+ 1
L+ 1
L+ 1
L+ 1
L+ 1
L+ 1
L+ 1
L+ 1
L+ 1
L+ 1
L+ 1
L+ 1
L+ 1
L+ 1
L+ 1
L+ 1
L+ 1
L+ 1
L+ 1
L+ 1
L+ 1
L+ 1
L+ 1
L+ 1
L+ 1
L+ 1
L+ 1
L+ 1
L+ 1
L+ 1
L+ 1
L+ 1
L+ 1
L+ 1
L+ 1
L+ 1
L+ 1
L+ 1
L+ 1
L+ 1
L+ 1
L+ 1
L+ 1
L+ 1
L+ 1
L+ 1
L+ 1
L+ 1
L+ 1
L+ 1
L+ 1
L+ 1
L+ 1
L+ 1
L+ 1
L+ 1
L+ 1
L+ 1
L+ 1
L+ 1
L+ 1
L+ 1
L+ 1
L+ 1
L+ 1
L+ 1
L+ 1
L+ 1
L+ 1
L+ 1
L+ 1
L+ 1
L+ 1
L+ 1
L+ 1
L+ 1
L+ 1
L+ 1
L+ 1
L+ 1
L+ 1
L+ 1
L+ 1
L+ 1
L+ 1
L+ 1
L+ 1
L+ 1
L+ 1
L+ 1
L+ 1
L+ 1
L+ 1
L+ 1
L+ 1
L+ 1
L+ 1
L+ 1
L+ 1
L+ 1
L+ 1
L+ 1
L+ 1
L+ 1
L+ 1
L+ 1
L+ 1
L+ 1
L+ 1
L+ 1
L+ 1
L+ 1
L+ 1
L+ 1
L+ 1
L+ 1
L+ 1
L+ 1
L+ 1
L+ 1
L+ 1
L+ 1
L+ 1
L+ 1
L+ 1
L+ 1
L+ 1
L+ 1
L+ 1
L+ 1
L+ 1
L+ 1
L+ 1
L+ 1
L+ 1
L+ 1
L+ 1
L+ 1
L+ 1
L+ 1
L+ 1
L+ 1
L+ 1
L+ 1
L+ 1
L+ 1
L+ 1
L+ 1
L+ 1
L+ 1
L+ 1
L+ 1
L+ 1
L+ 1
L+ 1
L+ 1
L+ 1
L+ 1
L+ 1
L+ 1
L+ 1
L+ 1
L+ 1
L+ 1
L+ 1
L+ 1
L+ 1
L+ 1
L+ 1
L+ 1
L+ 1
L+ 1
L+ 1
L+ 1
L+ 1
L+ 1
L+ 1
L+ 1
L+ 1
L+ 1
L+ 1
L+ 1
L+ 1
L+ 1
L+ 1
L+ 1
L+ 1
L+ 1
L+ 1
L+ 1
L+ 1
L+ 1
L+ 1
L+ 1
L+ 1
L+ 1
L+ 1
L+ 1
L+ 1
L+ 1
L+ 1
L+ 1
L+ 1
L+ 1
L+ 1
L+ 1
L+ 1
L+ 1
L+ 1
L+ 1
L+ 1
L+ 1
L+ 1
L+ 1
L+ 1
L+ 1
L+ 1
L+ 1
L+ 1
L+ 1
L+ 1
L+ 1
L+ 1
L+ 1
L+ 1
L+ 1
L+ 1
L+ 1
L+ 1
L+ 1
L+ 1
L+ 1
L+ 1
L+ 1
L+ 1
L+ 1
L+ 1
L+ 1
L+ 1
L+ 1
L+ 1
L+ 1
L+ 1
L+ 1
L+ 1
L+ 1
L+ 1
L+ 1
L+ 1
L+ 1
L+ 1
L+ 1
L+ 1
L+ 1
L+ 1
L+ 1
L+ 1
L+ 1
L+ 1
L+ 1
L+ 1
L+ 1
L+ 1
L+ 1
L+ 1
L+ 1
L+ 1
L+ 1
L+ 1
L+ 1
L+ 1
L+ 1
L+ 1
L+ 1
L+ 1
L+ 1
L+ 1
L+ 1
L+ 1
L+ 1
L+ 1
L+ 1
L+ 1
L+ 1
L+ 1
L+ 1
L+ 1
L+ 1
L+ 1
L+ 1
L+ 1
L+ 1
L+ 1
L+ 1
L+ 1
L+ 1
L+ 1
L+ 1
L+ 1
L+ 1
L+ 1
L+ 1
L+ 1
L+ 1
L+ 1
L+ 1
L+ 1
L+ 1
L+ 1
L+ 1
L+ 1
L+ 1
L+ 1
L+ 1
L+ 1
L+ 1
L+ 1
L+ 1
L+ 1
L+ 1
L+ 1
L+ 1
L+ 1
L+ 1
L+ 1
L+ 1
L+ 1
L+ 1
L+ 1
L+ 1
L+ 1
L+ 1
L+ 1
L+ 1
L+ 1
L+ 1
L+ 1
L+ 1
L+ 1
L+ 1
L+ 1
L+ 1
L+ 1
L+ 1
L+ 1
L+ 1
L+ 1
L+ 1
L+ 1
L+ 1
L+ 1
L+ 1

OBJACOORD
1
86 -1.0

ACOORD
2379
0 0 -10.0
1 0 1.0
42 0 -1.0
47 0 1.0
359 0 -10.0
797 0 1.0
0 1 -15.0
6 1 1.0
43 1 -1.0
49 1 1.0
359 1 -15.0
802 1 1.0
0 2 -18.0
10 2 1.0
44 2 -1.0
51 2 1.0
359 2 -18.0
806 2 1.0
0 3 -19.0
22 3 1.0
45 3 -1.0
55 3 1.0
359 3 -19.0
818 3 1.0
0 4 35.0
26 4 1.0
36 4 1.0
56 4 -1.0
822 4 1.0
0 5 28.0
28 5 1.0
37 5 1.0
57 5 -1.0
824 5 1.0
0 6 -16.0
29 6 1.0
46 6 -1.0
58 6 1.0
359 6 -16.0
825 6 1.0
0 7 2.0
32 7 1.0
38 7 1.0
368 7 -1.0
828 7 1.0
0 8 3.0
33 8 1.0
39 8 1.0
369 8 -1.0
829 8 1.0
0 9 5.0
34 9 1.0
40 9 1.0
370 9 -1.0
830 9 1.0
0 10 4.0
35 10 1.0
41 10 1.0
371 10 -1.0
831 10 1.0
0 11 -6.0
89 11 148.75
129 11 175.0
212 11 35.0
256 11 10.0
296 11 6.0
328 11 -6.0
360 11 1.0
1033 11 1.0
1034 11 -1.0
0 12 -40.0
90 12 148.75
130 12 175.0
213 12 35.0
257 12 50.0
297 12 40.0
329 12 -40.0
360 12 1.0
1035 12 1.0
1036 12 -1.0
0 13 -46.0
91 13 148.75
131 13 175.0
214 13 35.0
258 13 50.0
298 13 46.0
330 13 -46.0
360 13 1.0
1037 13 1.0
1038 13 -1.0
0 14 -7.0
93 14 254.045833333333
133 14 175.0
216 14 35.0
220 14 61.0
260 14 40.0
300 14 7.0
332 14 -7.0
361 14 1.0
1041 14 1.0
1042 14 -1.0
0 15 -30.0
94 15 254.045833333333
134 15 175.0
217 15 35.0
221 15 61.0
261 15 60.0
301 15 30.0
333 15 -30.0
361 15 1.0
1043 15 1.0
1044 15 -1.0
0 16 -37.0
95 16 254.045833333333
135 16 175.0
218 16 35.0
222 16 61.0
262 16 60.0
302 16 37.0
334 16 -37.0
361 16 1.0
1045 16 1.0
1046 16 -1.0
0 17 -7.0
97 17 20.4166666666667
101 17 20.4166666666667
137 17 20.8333333333333
224 17 25.0
264 17 15.0
304 17 7.0
336 17 -7.0
362 17 1.0
1049 17 1.0
1050 17 -1.0
0 18 -15.0
98 18 20.4166666666667
102 18 20.4166666666667
138 18 20.8333333333333
225 18 25.0
265 18 25.0
305 18 15.0
337 18 -15.0
362 18 1.0
1051 18 1.0
1052 18 -1.0
0 19 -22.0
99 19 20.4166666666667
103 19 20.4166666666667
139 19 20.8333333333333
226 19 25.0
266 19 25.0
306 19 22.0
338 19 -22.0
362 19 1.0
1053 19 1.0
1054 19 -1.0
0 20 -11.0
105 20 18.75
141 20 20.8333333333333
228 20 25.0
268 20 15.0
308 20 11.0
340 20 -11.0
363 20 1.0
1057 20 1.0
1058 20 -1.0
0 21 -13.0
106 21 18.75
142 21 20.8333333333333
229 21 25.0
269 21 20.0
309 21 13.0
341 21 -13.0
363 21 1.0
1059 21 1.0
1060 21 -1.0
0 22 -24.0
107 22 18.75
143 22 20.8333333333333
230 22 25.0
270 22 20.0
310 22 24.0
342 22 -24.0
363 22 1.0
1061 22 1.0
1062 22 -1.0
0 23 -10.0
109 23 17.8125
113 23 17.8125
145 23 18.75
232 23 25.0
272 23 10.0
312 23 10.0
344 23 -10.0
364 23 1.0
1065 23 1.0
1066 23 -1.0
0 24 -13.0
110 24 17.8125
114 24 17.8125
146 24 18.75
233 24 25.0
273 24 20.0
313 24 13.0
345 24 -13.0
364 24 1.0
1067 24 1.0
1068 24 -1.0
0 25 -23.0
111 25 17.8125
115 25 17.8125
147 25 18.75
234 25 25.0
274 25 20.0
314 25 23.0
346 25 -23.0
364 25 1.0
1069 25 1.0
1070 25 -1.0
0 26 -9.0
117 26 66.9375
149 26 18.75
236 26 25.0
240 26 24.0
276 26 20.0
316 26 9.0
348 26 -9.0
365 26 1.0
1073 26 1.0
1074 26 -1.0
0 27 -30.0
118 27 66.9375
150 27 18.75
237 27 25.0
241 27 24.0
277 27 55.0
317 27 30.0
349 27 -30.0
365 27 1.0
1075 27 1.0
1076 27 -1.0
0 28 -39.0
119 28 66.9375
151 28 18.75
238 28 25.0
242 28 24.0
278 28 55.0
318 28 39.0
350 28 -39.0
365 28 1.0
1077 28 1.0
1078 28 -1.0
0 29 -8.0
121 29 94.4571428571429
153 29 60.0
244 29 24.0
248 29 30.0
280 29 25.0
320 29 8.0
352 29 -8.0
366 29 1.0
1081 29 1.0
1082 29 -1.0
0 30 -20.0
122 30 94.4571428571429
154 30 60.0
245 30 24.0
249 30 30.0
281 30 50.0
321 30 20.0
353 30 -20.0
366 30 1.0
1083 30 1.0
1084 30 -1.0
0 31 -28.0
123 31 94.4571428571429
155 31 60.0
246 31 24.0
250 31 30.0
282 31 50.0
322 31 28.0
354 31 -28.0
366 31 1.0
1085 31 1.0
1086 31 -1.0
0 32 -8.0
125 32 39.4285714285714
157 32 42.8571428571429
252 32 30.0
284 32 15.0
324 32 8.0
356 32 -8.0
367 32 1.0
1089 32 1.0
1090 32 -1.0
0 33 -15.0
126 33 39.4285714285714
158 33 42.8571428571429
253 33 30.0
285 33 35.0
325 33 15.0
357 33 -15.0
367 33 1.0
1091 33 1.0
1092 33 -1.0
0 34 -23.0
127 34 39.4285714285714
159 34 42.8571428571429
254 34 30.0
286 34 35.0
326 34 23.0
358 34 -23.0
367 34 1.0
1093 34 1.0
1094 34 -1.0
0 35 -1.0
368 35 -1.0
372 35 1.0
1095 35 1.0
1096 35 -1.0
0 36 5.0
374 36 -1.0
1102 36 1.0
0 37 -2.0
369 37 -1.0
443 37 1.0
1107 37 1.0
1108 37 -1.0
0 38 -10.0
370 38 -1.0
527 38 1.0
1125 38 1.0
1126 38 -1.0
0 39 -5.0
371 39 -1.0
379 39 -1.0
1127 39 1.0
1128 39 -1.0
0 40 40.0
528 40 1.0
1135 40 1.0
0 41 15.0
543 41 1.0
1136 41 1.0
0 42 10.0
556 42 1.0
1137 42 1.0
0 43 30.0
576 43 1.0
1138 43 1.0
0 44 35.0
587 44 1.0
1139 44 1.0
0 45 20.0
596 45 1.0
1140 45 1.0
0 46 25.0
609 46 1.0
1141 46 1.0
0 47 15.0
622 47 1.0
1142 47 1.0
0 48 30.0
385 48 -1.0
1150 48 1.0
0 49 -1.0
694 49 1.0
1155 49 1.0
1156 49 -1.0
0 50 80.0
388 50 -1.0
1164 50 1.0
0 51 285.0
710 51 1.0
1165 51 1.0
0 52 290.0
723 52 1.0
1166 52 1.0
0 53 280.0
736 53 1.0
1167 53 1.0
0 54 290.0
745 54 1.0
1168 54 1.0
0 55 350.0
754 55 1.0
1169 55 1.0
0 56 -5.0
389 56 1.0
390 56 1.0
392 56 1.0
398 56 40.0
399 56 -40.0
400 56 3.71357206670431
401 56 -3.71357206670431
759 56 1.0
769 56 1.0
770 56 1.0
771 56 1.0
1298 56 1.0
1299 56 -1.0
0 57 -8.0
402 57 1.0
403 57 1.0
405 57 1.0
411 57 40.0
412 57 -40.0
413 57 4.45628648004517
414 57 -4.45628648004517
759 57 1.0
769 57 1.0
770 57 1.0
771 57 1.0
1300 57 1.0
1301 57 -1.0
0 58 -6.0
420 58 4.45628648004517
421 58 -4.45628648004517
422 58 3.34221486003388
423 58 -3.34221486003388
760 58 -1.0
769 58 -1.0
772 58 1.0
773 58 1.0
1302 58 1.0
1303 58 -1.0
0 59 -10.0
424 59 1.0
425 59 1.0
427 59 1.0
433 59 4.45628648004517
434 59 -4.45628648004517
435 59 2.54515263975353
436 59 -2.54515263975353
763 59 -1.0
770 59 -1.0
774 59 1.0
1304 59 1.0
1305 59 -1.0
0 60 -6.0
445 60 4.45628648004517
446 60 -4.45628648004517
447 60 30.0
448 60 -30.0
449 60 15.0
450 60 -15.0
765 60 -1.0
771 60 -1.0
775 60 1.0
776 60 1.0
777 60 1.0
1306 60 1.0
1307 60 -1.0
0 61 -7.0
451 61 1.0
452 61 1.0
454 61 1.0
460 61 3.34221486003388
461 61 -3.34221486003388
462 61 1.83548069293539
463 61 -1.83548069293539
760 61 1.0
761 61 -1.0
772 61 -1.0
778 61 1.0
1308 61 1.0
1309 61 -1.0
0 62 -4.0
464 62 1.0
465 62 1.0
467 62 1.0
473 62 3.34221486003388
474 62 -3.34221486003388
475 62 1.32154609891348
476 62 -1.32154609891348
760 62 1.0
762 62 -1.0
773 62 -1.0
779 62 1.0
1310 62 1.0
1311 62 -1.0
0 63 -5.0
477 63 1.0
478 63 1.0
480 63 1.0
486 63 2.54515263975353
487 63 -2.54515263975353
488 63 1.26558121681553
489 63 -1.26558121681553
763 63 1.0
764 63 -1.0
774 63 -1.0
780 63 1.0
781 63 1.0
1312 63 1.0
1313 63 -1.0
0 64 -2.0
495 64 15.0
496 64 -15.0
497 64 13.5
498 64 -13.5
765 64 1.0
766 64 -1.0
775 64 -1.0
1314 64 1.0
1315 64 -1.0
0 65 -4.0
504 65 15.0
505 65 -15.0
506 65 9.0
507 65 -9.0
765 65 1.0
767 65 -1.0
776 65 -1.0
782 65 1.0
783 65 1.0
1316 65 1.0
1317 65 -1.0
0 66 -3.0
508 66 1.0
509 66 1.0
511 66 1.0
517 66 15.0
518 66 -15.0
519 66 3.04984759446376
520 66 -3.04984759446376
765 66 1.0
768 66 -1.0
777 66 -1.0
784 66 1.0
785 66 1.0
786 66 1.0
1318 66 1.0
1319 66 -1.0
0 67 -7.0
529 67 1.83548069293539
530 67 -1.83548069293539
531 67 20.0
532 67 -20.0
533 67 20.0
534 67 -20.0
761 67 1.0
778 67 -1.0
1320 67 1.0
1321 67 -1.0
0 68 -3.0
535 68 1.0
536 68 1.0
538 68 1.0
544 68 1.32154609891348
545 68 -1.32154609891348
546 68 0.842233385663186
547 68 -0.842233385663186
762 68 1.0
779 68 -1.0
1322 68 1.0
1323 68 -1.0
0 69 -2.0
548 69 1.0
549 69 1.0
551 69 1.0
557 69 1.26558121681553
558 69 -1.26558121681553
559 69 0.572481933717686
560 69 -0.572481933717686
764 69 1.0
780 69 -1.0
1324 69 1.0
1325 69 -1.0
0 70 -4.0
561 70 1.0
562 70 1.0
564 70 1.0
566 70 1.0
567 70 1.0
569 70 1.0
577 70 1.26558121681553
578 70 -1.26558121681553
579 70 33.5
580 70 -33.5
581 70 2.30162356062425
582 70 -2.30162356062425
764 70 1.0
766 70 1.0
781 70 -1.0
1326 70 1.0
1327 70 -1.0
0 71 -2.0
588 71 9.0
589 71 -9.0
590 71 9.0
591 71 -9.0
767 71 1.0
782 71 -1.0
1328 71 1.0
1329 71 -1.0
0 72 -3.0
597 72 9.0
598 72 -9.0
599 72 9.0
600 72 -9.0
767 72 1.0
783 72 -1.0
1330 72 1.0
1331 72 -1.0
0 73 -5.0
601 73 1.0
602 73 1.0
604 73 1.0
610 73 3.04984759446376
611 73 -3.04984759446376
612 73 1.04900943706034
613 73 -1.04900943706034
768 73 1.0
784 73 -1.0
1332 73 1.0
1333 73 -1.0
0 74 -2.0
614 74 1.0
615 74 1.0
617 74 1.0
623 74 3.04984759446376
624 74 -3.04984759446376
625 74 1.11894339953103
626 74 -1.11894339953103
768 74 1.0
785 74 -1.0
1334 74 1.0
1335 74 -1.0
0 75 -1.0
627 75 1.0
628 75 1.0
630 75 1.0
636 75 3.04984759446376
637 75 -3.04984759446376
638 75 1.18887736200171
639 75 -1.18887736200171
768 75 1.0
786 75 -1.0
787 75 -1.0
790 75 1.0
791 75 1.0
1336 75 1.0
1337 75 -1.0
0 76 -2.0
640 76 1.0
641 76 1.0
643 76 1.0
649 76 1.18887736200171
650 76 -1.18887736200171
651 76 0.78338879230327
652 76 -0.78338879230327
787 76 1.0
790 76 -1.0
1338 76 1.0
1339 76 -1.0
0 77 -9.0
653 77 1.0
654 77 1.0
656 77 1.0
662 77 1.18887736200171
663 77 -1.18887736200171
664 77 0.940066550763924
665 77 -0.940066550763924
787 77 1.0
791 77 -1.0
1340 77 1.0
1341 77 -1.0
0 78 -5.0
671 78 0.940066550763924
672 78 -0.940066550763924
673 78 0.705049913072943
674 78 -0.705049913072943
788 78 -1.0
792 78 1.0
793 78 1.0
1342 78 1.0
1343 78 -1.0
0 79 -2.0
675 79 1.0
676 79 1.0
678 79 1.0
684 79 0.940066550763924
685 79 -0.940066550763924
686 79 0.994083415506506
687 79 -0.994083415506506
789 79 -1.0
794 79 1.0
1344 79 1.0
1345 79 -1.0
0 80 -10.0
696 80 0.940066550763924
697 80 -0.940066550763924
698 80 30.0
699 80 -30.0
700 80 15.0
701 80 -15.0
795 80 1.0
796 80 1.0
1346 80 1.0
1347 80 -1.0
0 81 -4.0
702 81 1.0
703 81 1.0
705 81 1.0
711 81 0.705049913072943
712 81 -0.705049913072943
713 81 0.666992981045719
714 81 -0.666992981045719
788 81 1.0
792 81 -1.0
1348 81 1.0
1349 81 -1.0
0 82 -7.0
715 82 1.0
716 82 1.0
718 82 1.0
724 82 0.705049913072943
725 82 -0.705049913072943
726 82 0.480234946352917
727 82 -0.480234946352917
788 82 1.0
793 82 -1.0
1350 82 1.0
1351 82 -1.0
0 83 -4.0
728 83 1.0
729 83 1.0
731 83 1.0
737 83 0.994083415506506
738 83 -0.994083415506506
739 83 0.690184503917672
740 83 -0.690184503917672
789 83 1.0
794 83 -1.0
1352 83 1.0
1353 83 -1.0
0 84 -2.0
746 84 15.0
747 84 -15.0
748 84 13.5
749 84 -13.5
795 84 -1.0
1354 84 1.0
1355 84 -1.0
0 85 -8.0
755 85 15.0
756 85 -15.0
757 85 9.0
758 85 -9.0
796 85 -1.0
1356 85 1.0
1357 85 -1.0
0 86 -1.0
1 87 -0.2
832 87 1.0
2 88 1.0
47 88 -1.0
59 88 1.0
200 88 1.0
798 88 1.0
2 89 -0.2
71 89 1.0
833 89 1.0
3 90 1.0
47 90 -1.0
60 90 1.0
201 90 1.0
799 90 1.0
3 91 -0.2
67 91 -1.0
73 91 1.0
834 91 1.0
4 92 1.0
48 92 1.0
59 92 -1.0
800 92 1.0
4 93 -0.2
70 93 1.0
835 93 1.0
5 94 1.0
48 94 -1.0
368 94 1.0
801 94 1.0
5 95 -0.2
836 95 1.0
6 96 -0.5
837 96 1.0
7 97 1.0
49 97 -1.0
60 97 1.0
202 97 1.0
803 97 1.0
7 98 -0.5
67 98 1.0
838 98 1.0
8 99 1.0
50 99 1.0
60 99 -1.0
804 99 1.0
8 100 -0.7
72 100 1.0
839 100 1.0
9 101 1.0
50 101 -1.0
369 101 1.0
805 101 1.0
9 102 -0.7
840 102 1.0
10 103 -1.2
841 103 1.0
11 104 1.0
51 104 -1.0
61 104 1.0
203 104 1.0
807 104 1.0
11 105 -1.2
76 105 1.0
842 105 1.0
12 106 1.0
49 106 1.0
61 106 -1.0
808 106 1.0
12 107 -0.5
74 107 1.0
843 107 1.0
13 108 1.0
50 108 1.0
61 108 -1.0
809 108 1.0
13 109 -0.7
75 109 1.0
844 109 1.0
14 110 1.0
51 110 -1.0
62 110 1.0
204 110 1.0
810 110 1.0
14 111 -1.2
78 111 1.0
845 111 1.0
15 112 1.0
52 112 1.0
62 112 -1.0
811 112 1.0
15 113 -1.2
77 113 1.0
846 113 1.0
16 114 1.0
52 114 -1.0
64 114 1.0
206 114 1.0
812 114 1.0
16 115 -1.2
68 115 -1.0
83 115 1.0
847 115 1.0
17 116 1.0
52 116 -1.0
63 116 1.0
205 116 1.0
813 116 1.0
17 117 -1.2
81 117 1.0
848 117 1.0
18 118 1.0
53 118 1.0
63 118 -1.0
814 118 1.0
18 119 -0.3
79 119 1.0
849 119 1.0
19 120 1.0
54 120 1.0
63 120 -1.0
815 120 1.0
19 121 -0.9
80 121 1.0
850 121 1.0
20 122 1.0
53 122 -1.0
370 122 1.0
816 122 1.0
20 123 -0.3
851 123 1.0
21 124 1.0
54 124 -1.0
371 124 1.0
817 124 1.0
21 125 -0.9
852 125 1.0
22 126 -0.4
853 126 1.0
23 127 1.0
55 127 -1.0
64 127 1.0
207 127 1.0
819 127 1.0
23 128 -0.4
68 128 1.0
854 128 1.0
24 129 1.0
55 129 -1.0
65 129 1.0
208 129 1.0
820 129 1.0
24 130 -0.4
69 130 -1.0
85 130 1.0
855 130 1.0
25 131 1.0
56 131 1.0
64 131 -1.0
821 131 1.0
25 132 -1.6
82 132 1.0
856 132 1.0
26 133 -1.6
857 133 1.0
27 134 1.0
57 134 1.0
65 134 -1.0
823 134 1.0
27 135 -1.1
84 135 1.0
858 135 1.0
28 136 -1.1
859 136 1.0
29 137 -0.7
860 137 1.0
30 138 1.0
58 138 -1.0
66 138 1.0
210 138 1.0
826 138 1.0
30 139 -0.7
87 139 1.0
861 139 1.0
31 140 1.0
65 140 1.0
66 140 -1.0
209 140 1.0
827 140 1.0
31 141 -0.7
69 141 1.0
86 141 1.0
862 141 1.0
32 142 -0.2
863 142 1.0
33 143 -0.7
864 143 1.0
34 144 -0.3
865 144 1.0
35 145 -0.9
866 145 1.0
59 146 -1.0
867 146 1.0
60 147 -1.0
868 147 1.0
61 148 -1.0
869 148 1.0
62 149 -1.0
870 149 1.0
63 150 -1.0
871 150 1.0
64 151 -1.0
872 151 1.0
65 152 -1.0
873 152 1.0
66 153 -1.0
874 153 1.0
70 154 -1.0
88 154 -1.0
160 154 1.0
935 154 1.0
70 155 -1.0
89 155 -1.0
161 155 1.0
936 155 1.0
70 156 -1.0
90 156 -1.0
162 156 1.0
937 156 1.0
70 157 -1.0
91 157 -1.0
163 157 1.0
938 157 1.0
71 158 -1.0
128 158 -1.0
160 158 -0.8
927 158 1.0
71 159 -1.0
129 159 -1.0
161 159 -0.85
928 159 1.0
71 160 -1.0
130 160 -1.0
162 160 -0.8
929 160 1.0
71 161 -1.0
131 161 -1.0
163 161 -0.85
930 161 1.0
72 162 -1.0
92 162 -1.0
164 162 1.0
939 162 1.0
72 163 -1.0
93 163 -1.0
165 163 1.0
940 163 1.0
72 164 -1.0
94 164 -1.0
166 164 1.0
941 164 1.0
72 165 -1.0
95 165 -1.0
167 165 1.0
942 165 1.0
73 166 -1.0
132 166 -1.0
164 166 -0.9
931 166 1.0
73 167 -1.0
133 167 -1.0
165 167 -0.95
932 167 1.0
73 168 -1.0
134 168 -1.0
166 168 -0.9
933 168 1.0
73 169 -1.0
135 169 -1.0
167 169 -0.95
934 169 1.0
74 170 -1.0
96 170 -1.0
168 170 1.0
947 170 1.0
74 171 -1.0
97 171 -1.0
169 171 1.0
948 171 1.0
74 172 -1.0
98 172 -1.0
170 172 1.0
949 172 1.0
74 173 -1.0
99 173 -1.0
171 173 1.0
950 173 1.0
75 174 -1.0
100 174 -1.0
172 174 1.0
951 174 1.0
75 175 -1.0
101 175 -1.0
173 175 1.0
952 175 1.0
75 176 -1.0
102 176 -1.0
174 176 1.0
953 176 1.0
75 177 -1.0
103 177 -1.0
175 177 1.0
954 177 1.0
76 178 -1.0
136 178 -1.0
168 178 -0.85
172 178 -0.85
943 178 1.0
76 179 -1.0
137 179 -1.0
169 179 -0.98
173 179 -0.98
944 179 1.0
76 180 -1.0
138 180 -1.0
170 180 -0.85
174 180 -0.85
945 180 1.0
76 181 -1.0
139 181 -1.0
171 181 -0.98
175 181 -0.98
946 181 1.0
77 182 -1.0
104 182 -1.0
176 182 1.0
959 182 1.0
77 183 -1.0
105 183 -1.0
177 183 1.0
960 183 1.0
77 184 -1.0
106 184 -1.0
178 184 1.0
961 184 1.0
77 185 -1.0
107 185 -1.0
179 185 1.0
962 185 1.0
78 186 -1.0
140 186 -1.0
176 186 -0.85
955 186 1.0
78 187 -1.0
141 187 -1.0
177 187 -0.9
956 187 1.0
78 188 -1.0
142 188 -1.0
178 188 -0.85
957 188 1.0
78 189 -1.0
143 189 -1.0
179 189 -0.9
958 189 1.0
79 190 -1.0
108 190 -1.0
180 190 1.0
971 190 1.0
79 191 -1.0
109 191 -1.0
181 191 1.0
972 191 1.0
79 192 -1.0
110 192 -1.0
182 192 1.0
973 192 1.0
79 193 -1.0
111 193 -1.0
183 193 1.0
974 193 1.0
80 194 -1.0
112 194 -1.0
184 194 1.0
975 194 1.0
80 195 -1.0
113 195 -1.0
185 195 1.0
976 195 1.0
80 196 -1.0
114 196 -1.0
186 196 1.0
977 196 1.0
80 197 -1.0
115 197 -1.0
187 197 1.0
978 197 1.0
81 198 -1.0
144 198 -1.0
180 198 -0.75
184 198 -0.75
967 198 1.0
81 199 -1.0
145 199 -1.0
181 199 -0.95
185 199 -0.95
968 199 1.0
81 200 -1.0
146 200 -1.0
182 200 -0.9
186 200 -0.9
969 200 1.0
81 201 -1.0
147 201 -1.0
183 201 -0.95
187 201 -0.95
970 201 1.0
82 202 -1.0
116 202 -1.0
188 202 1.0
983 202 1.0
82 203 -1.0
117 203 -1.0
189 203 1.0
984 203 1.0
82 204 -1.0
118 204 -1.0
190 204 1.0
985 204 1.0
82 205 -1.0
119 205 -1.0
191 205 1.0
986 205 1.0
83 206 -1.0
148 206 -1.0
188 206 -0.8
963 206 1.0
83 207 -1.0
149 207 -1.0
189 207 -0.85
964 207 1.0
83 208 -1.0
150 208 -1.0
190 208 -0.8
965 208 1.0
83 209 -1.0
151 209 -1.0
191 209 -0.85
966 209 1.0
84 210 -1.0
120 210 -1.0
192 210 1.0
987 210 1.0
84 211 -1.0
121 211 -1.0
193 211 1.0
988 211 1.0
84 212 -1.0
122 212 -1.0
194 212 1.0
989 212 1.0
84 213 -1.0
123 213 -1.0
195 213 1.0
990 213 1.0
85 214 -1.0
152 214 -1.0
192 214 -0.85
979 214 1.0
85 215 -1.0
153 215 -1.0
193 215 -0.95
980 215 1.0
85 216 -1.0
154 216 -1.0
194 216 -0.85
981 216 1.0
85 217 -1.0
155 217 -1.0
195 217 -0.95
982 217 1.0
86 218 -1.0
124 218 -1.0
196 218 1.0
995 218 1.0
86 219 -1.0
125 219 -1.0
197 219 1.0
996 219 1.0
86 220 -1.0
126 220 -1.0
198 220 1.0
997 220 1.0
86 221 -1.0
127 221 -1.0
199 221 1.0
998 221 1.0
87 222 -1.0
156 222 -1.0
196 222 -0.8
991 222 1.0
87 223 -1.0
157 223 -1.0
197 223 -0.92
992 223 1.0
87 224 -1.0
158 224 -1.0
198 224 -0.8
993 224 1.0
87 225 -1.0
159 225 -1.0
199 225 -0.92
994 225 1.0
88 226 148.75
128 226 175.0
211 226 35.0
255 226 10.0
360 226 1.0
1031 226 1.0
1032 226 -1.0
92 227 254.045833333333
132 227 175.0
215 227 35.0
219 227 61.0
259 227 40.0
361 227 1.0
1039 227 1.0
1040 227 -1.0
96 228 20.4166666666667
100 228 20.4166666666667
136 228 20.8333333333333
223 228 25.0
263 228 15.0
362 228 1.0
1047 228 1.0
1048 228 -1.0
104 229 18.75
140 229 20.8333333333333
227 229 25.0
267 229 15.0
363 229 1.0
1055 229 1.0
1056 229 -1.0
108 230 17.8125
112 230 17.8125
144 230 18.75
231 230 25.0
271 230 10.0
364 230 1.0
1063 230 1.0
1064 230 -1.0
116 231 66.9375
148 231 18.75
235 231 25.0
239 231 24.0
275 231 20.0
365 231 1.0
1071 231 1.0
1072 231 -1.0
120 232 94.4571428571429
152 232 60.0
243 232 24.0
247 232 30.0
279 232 25.0
366 232 1.0
1079 232 1.0
1080 232 -1.0
124 233 39.4285714285714
156 233 42.8571428571429
251 233 30.0
283 233 15.0
367 233 1.0
1087 233 1.0
1088 233 -1.0
200 234 -1.0
211 234 -1.0
255 234 -1.0
883 234 1.0
200 235 -1.0
212 235 -1.0
256 235 -1.0
884 235 1.0
200 236 -1.0
213 236 -1.0
257 236 -1.0
885 236 1.0
200 237 -1.0
214 237 -1.0
258 237 -1.0
886 237 1.0
201 238 -1.0
215 238 -1.0
259 238 -1.0
887 238 1.0
201 239 -1.0
216 239 -1.0
260 239 -1.0
888 239 1.0
201 240 -1.0
217 240 -1.0
261 240 -1.0
889 240 1.0
201 241 -1.0
218 241 -1.0
262 241 -1.0
890 241 1.0
202 242 -1.0
219 242 -1.0
259 242 -1.0
891 242 1.0
202 243 -1.0
220 243 -1.0
260 243 -1.0
892 243 1.0
202 244 -1.0
221 244 -1.0
261 244 -1.0
893 244 1.0
202 245 -1.0
222 245 -1.0
262 245 -1.0
894 245 1.0
203 246 -1.0
223 246 -1.0
263 246 -1.0
895 246 1.0
203 247 -1.0
224 247 -1.0
264 247 -1.0
896 247 1.0
203 248 -1.0
225 248 -1.0
265 248 -1.0
897 248 1.0
203 249 -1.0
226 249 -1.0
266 249 -1.0
898 249 1.0
204 250 -1.0
227 250 -1.0
267 250 -1.0
899 250 1.0
204 251 -1.0
228 251 -1.0
268 251 -1.0
900 251 1.0
204 252 -1.0
229 252 -1.0
269 252 -1.0
901 252 1.0
204 253 -1.0
230 253 -1.0
270 253 -1.0
902 253 1.0
205 254 -1.0
231 254 -1.0
271 254 -1.0
907 254 1.0
205 255 -1.0
232 255 -1.0
272 255 -1.0
908 255 1.0
205 256 -1.0
233 256 -1.0
273 256 -1.0
909 256 1.0
205 257 -1.0
234 257 -1.0
274 257 -1.0
910 257 1.0
206 258 -1.0
235 258 -1.0
275 258 -1.0
903 258 1.0
206 259 -1.0
236 259 -1.0
276 259 -1.0
904 259 1.0
206 260 -1.0
237 260 -1.0
277 260 -1.0
905 260 1.0
206 261 -1.0
238 261 -1.0
278 261 -1.0
906 261 1.0
207 262 -1.0
239 262 -1.0
275 262 -1.0
911 262 1.0
207 263 -1.0
240 263 -1.0
276 263 -1.0
912 263 1.0
207 264 -1.0
241 264 -1.0
277 264 -1.0
913 264 1.0
207 265 -1.0
242 265 -1.0
278 265 -1.0
914 265 1.0
208 266 -1.0
243 266 -1.0
279 266 -1.0
915 266 1.0
208 267 -1.0
244 267 -1.0
280 267 -1.0
916 267 1.0
208 268 -1.0
245 268 -1.0
281 268 -1.0
917 268 1.0
208 269 -1.0
246 269 -1.0
282 269 -1.0
918 269 1.0
209 270 -1.0
247 270 -1.0
279 270 -1.0
923 270 1.0
209 271 -1.0
248 271 -1.0
280 271 -1.0
924 271 1.0
209 272 -1.0
249 272 -1.0
281 272 -1.0
925 272 1.0
209 273 -1.0
250 273 -1.0
282 273 -1.0
926 273 1.0
210 274 -1.0
251 274 -1.0
283 274 -1.0
919 274 1.0
210 275 -1.0
252 275 -1.0
284 275 -1.0
920 275 1.0
210 276 -1.0
253 276 -1.0
285 276 -1.0
921 276 1.0
210 277 -1.0
254 277 -1.0
286 277 -1.0
922 277 1.0
287 278 1.0
359 278 -1.0
875 278 1.0
287 279 -1.0
295 279 -1.0
327 279 1.0
999 279 1.0
287 280 -1.0
296 280 -1.0
328 280 1.0
1000 280 1.0
287 281 -1.0
297 281 -1.0
329 281 1.0
1001 281 1.0
287 282 -1.0
298 282 -1.0
330 282 1.0
1002 282 1.0
288 283 1.0
359 283 -1.0
876 283 1.0
288 284 -1.0
299 284 -1.0
331 284 1.0
1003 284 1.0
288 285 -1.0
300 285 -1.0
332 285 1.0
1004 285 1.0
288 286 -1.0
301 286 -1.0
333 286 1.0
1005 286 1.0
288 287 -1.0
302 287 -1.0
334 287 1.0
1006 287 1.0
289 288 1.0
359 288 -1.0
877 288 1.0
289 289 -1.0
303 289 -1.0
335 289 1.0
1007 289 1.0
289 290 -1.0
304 290 -1.0
336 290 1.0
1008 290 1.0
289 291 -1.0
305 291 -1.0
337 291 1.0
1009 291 1.0
289 292 -1.0
306 292 -1.0
338 292 1.0
1010 292 1.0
290 293 1.0
359 293 -1.0
878 293 1.0
290 294 -1.0
307 294 -1.0
339 294 1.0
1011 294 1.0
290 295 -1.0
308 295 -1.0
340 295 1.0
1012 295 1.0
290 296 -1.0
309 296 -1.0
341 296 1.0
1013 296 1.0
290 297 -1.0
310 297 -1.0
342 297 1.0
1014 297 1.0
291 298 1.0
359 298 -1.0
879 298 1.0
291 299 -1.0
311 299 -1.0
343 299 1.0
1015 299 1.0
291 300 -1.0
312 300 -1.0
344 300 1.0
1016 300 1.0
291 301 -1.0
313 301 -1.0
345 301 1.0
1017 301 1.0
291 302 -1.0
314 302 -1.0
346 302 1.0
1018 302 1.0
292 303 1.0
359 303 -1.0
880 303 1.0
292 304 -1.0
315 304 -1.0
347 304 1.0
1019 304 1.0
292 305 -1.0
316 305 -1.0
348 305 1.0
1020 305 1.0
292 306 -1.0
317 306 -1.0
349 306 1.0
1021 306 1.0
292 307 -1.0
318 307 -1.0
350 307 1.0
1022 307 1.0
293 308 1.0
359 308 -1.0
881 308 1.0
293 309 -1.0
319 309 -1.0
351 309 1.0
1023 309 1.0
293 310 -1.0
320 310 -1.0
352 310 1.0
1024 310 1.0
293 311 -1.0
321 311 -1.0
353 311 1.0
1025 311 1.0
293 312 -1.0
322 312 -1.0
354 312 1.0
1026 312 1.0
294 313 1.0
359 313 -1.0
882 313 1.0
294 314 -1.0
323 314 -1.0
355 314 1.0
1027 314 1.0
294 315 -1.0
324 315 -1.0
356 315 1.0
1028 315 1.0
294 316 -1.0
325 316 -1.0
357 316 1.0
1029 316 1.0
294 317 -1.0
326 317 -1.0
358 317 1.0
1030 317 1.0
372 318 -1.0
396 318 1.0
1097 318 1.0
372 319 -1.0
409 319 1.0
1098 319 1.0
373 320 -1.0
397 320 1.0
1099 320 1.0
373 321 -1.0
410 321 1.0
1100 321 1.0
373 322 1.0
374 322 1.0
1101 322 1.0
374 323 -1.0
375 323 1.0
1103 323 1.0
375 324 -1.0
418 324 1.0
1104 324 1.0
375 325 -1.0
431 325 1.0
1105 325 1.0
375 326 -1.0
442 326 1.0
1106 326 1.0
376 327 1.0
419 327 1.0
1109 327 1.0
376 328 -1.0
458 328 1.0
1112 328 1.0
376 329 -1.0
471 329 1.0
1113 329 1.0
377 330 1.0
444 330 1.0
1111 330 1.0
377 331 -1.0
493 331 1.0
1114 331 1.0
377 332 -1.0
502 332 1.0
1115 332 1.0
377 333 -1.0
515 333 1.0
1116 333 1.0
378 334 1.0
485 334 1.0
1119 334 1.0
378 335 -1.0
555 335 1.0
1123 335 1.0
378 336 -1.0
574 336 1.0
1124 336 1.0
379 337 -1.0
494 337 1.0
1120 337 1.0
379 338 1.0
575 338 1.0
1129 338 1.0
380 339 1.0
503 339 1.0
1121 339 1.0
380 340 -1.0
586 340 1.0
1130 340 1.0
380 341 -1.0
595 341 1.0
1131 341 1.0
381 342 1.0
516 342 1.0
1122 342 1.0
381 343 -1.0
608 343 1.0
1132 343 1.0
381 344 -1.0
621 344 1.0
1133 344 1.0
381 345 -1.0
634 345 1.0
1134 345 1.0
382 346 1.0
635 346 1.0
1143 346 1.0
382 347 -1.0
383 347 1.0
1144 347 1.0
383 348 -1.0
647 348 1.0
1145 348 1.0
383 349 -1.0
660 349 1.0
1146 349 1.0
384 350 -1.0
648 350 1.0
1147 350 1.0
384 351 -1.0
661 351 1.0
1148 351 1.0
384 352 1.0
385 352 1.0
1149 352 1.0
385 353 -1.0
386 353 1.0
1151 353 1.0
386 354 -1.0
669 354 1.0
1152 354 1.0
386 355 -1.0
682 355 1.0
1153 355 1.0
386 356 -1.0
693 356 1.0
1154 356 1.0
387 357 1.0
670 357 1.0
1157 357 1.0
387 358 -1.0
709 358 1.0
1160 358 1.0
387 359 -1.0
722 359 1.0
1161 359 1.0
388 360 1.0
695 360 1.0
1159 360 1.0
388 361 -1.0
744 361 1.0
1162 361 1.0
388 362 -1.0
753 362 1.0
1163 362 1.0
391 363 -1.0
393 363 -1.0
389 364 1.0
392 364 1.0
396 364 -1.0
398 364 -1.0
1170 364 1.0
393 365 -1.0
397 365 -1.0
400 365 -1.0
1174 365 1.0
394 366 1.0
396 366 -1.0
399 366 -1.0
1171 366 1.0
395 367 1.0
397 367 -1.0
401 367 -1.0
1175 367 1.0
404 368 -1.0
406 368 -1.2
402 369 1.0
405 369 1.0
409 369 -1.0
411 369 -1.0
1172 369 1.0
406 370 -1.0
410 370 -1.0
413 370 -1.0
1176 370 1.0
407 371 1.0
409 371 -1.0
412 371 -1.0
1173 371 1.0
408 372 1.0
410 372 -1.0
414 372 -1.0
1177 372 1.0
415 373 -0.75
418 373 -1.0
420 373 -1.0
1178 373 1.0
415 374 1.0
419 374 -1.0
422 374 -1.0
1186 374 1.0
416 375 1.0
418 375 -1.0
421 375 -1.0
1179 375 1.0
417 376 1.0
419 376 -1.0
423 376 -1.0
1187 376 1.0
426 377 -1.0
428 377 -1.5
424 378 1.0
427 378 1.0
431 378 -1.0
433 378 -1.0
1180 378 1.0
428 379 -1.0
432 379 -1.0
435 379 -1.0
1188 379 1.0
429 380 1.0
431 380 -1.0
434 380 -1.0
1181 380 1.0
430 381 1.0
432 381 -1.0
436 381 -1.0
1190 381 1.0
432 382 1.0
484 382 1.0
1110 382 1.0
437 383 -1.0
442 383 -1.0
445 383 -1.0
1182 383 1.0
437 384 1.0
438 384 1.0
444 384 -1.0
449 384 -1.0
1192 384 1.0
438 385 -0.5
443 385 -1.0
447 385 -1.0
1184 385 1.0
439 386 1.0
442 386 -1.0
446 386 -1.0
1183 386 1.0
440 387 1.0
443 387 -1.0
448 387 -1.0
1185 387 1.0
441 388 1.0
444 388 -1.0
450 388 -1.0
1193 388 1.0
453 389 -1.0
455 389 -1.25
451 390 1.0
454 390 1.0
458 390 -1.0
460 390 -1.0
1194 390 1.0
455 391 -1.0
459 391 -1.0
462 391 -1.0
1204 391 1.0
456 392 1.0
458 392 -1.0
461 392 -1.0
1195 392 1.0
457 393 1.0
459 393 -1.0
463 393 -1.0
1206 393 1.0
459 394 1.0
526 394 1.0
1117 394 1.0
466 395 -1.0
468 395 -0.9
464 396 1.0
467 396 1.0
471 396 -1.0
473 396 -1.0
1196 396 1.0
468 397 -1.0
472 397 -1.0
475 397 -1.0
1208 397 1.0
469 398 1.0
471 398 -1.0
474 398 -1.0
1197 398 1.0
470 399 1.0
472 399 -1.0
476 399 -1.0
1210 399 1.0
472 400 1.0
542 400 1.0
1118 400 1.0
479 401 -1.0
481 401 -1.0
477 402 1.0
480 402 1.0
484 402 -1.0
486 402 -1.0
1189 402 1.0
481 403 -1.0
485 403 -1.0
488 403 -1.0
1212 403 1.0
482 404 1.0
484 404 -1.0
487 404 -1.0
1191 404 1.0
483 405 1.0
485 405 -1.0
489 405 -1.0
1213 405 1.0
490 406 -0.9
493 406 -1.0
495 406 -1.0
1198 406 1.0
490 407 1.0
494 407 -1.0
497 407 -1.0
1214 407 1.0
491 408 1.0
493 408 -1.0
496 408 -1.0
1199 408 1.0
492 409 1.0
494 409 -1.0
498 409 -1.0
1215 409 1.0
499 410 -0.6
502 410 -1.0
504 410 -1.0
1200 410 1.0
499 411 1.0
503 411 -1.0
506 411 -1.0
1216 411 1.0
500 412 1.0
502 412 -1.0
505 412 -1.0
1201 412 1.0
501 413 1.0
503 413 -1.0
507 413 -1.0
1217 413 1.0
510 414 -1.0
512 414 -1.1
508 415 1.0
511 415 1.0
515 415 -1.0
517 415 -1.0
1202 415 1.0
512 416 -1.0
516 416 -1.0
519 416 -1.0
1218 416 1.0
513 417 1.0
515 417 -1.0
518 417 -1.0
1203 417 1.0
514 418 1.0
516 418 -1.0
520 418 -1.0
1219 418 1.0
521 419 -0.9
526 419 -1.0
529 419 -1.0
1205 419 1.0
521 420 1.0
522 420 1.0
528 420 -1.0
533 420 -1.0
1238 420 1.0
522 421 -1.0
527 421 -1.0
531 421 -1.0
1224 421 1.0
523 422 1.0
526 422 -1.0
530 422 -1.0
1207 422 1.0
524 423 1.0
527 423 -1.0
532 423 -1.0
1225 423 1.0
525 424 1.0
528 424 -1.0
534 424 -1.0
1239 424 1.0
537 425 -1.0
539 425 -1.0
535 426 1.0
538 426 1.0
542 426 -1.0
544 426 -1.0
1209 426 1.0
539 427 -1.0
543 427 -1.0
546 427 -1.0
1240 427 1.0
540 428 1.0
542 428 -1.0
545 428 -1.0
1211 428 1.0
541 429 1.0
543 429 -1.0
547 429 -1.0
1241 429 1.0
550 430 -1.0
552 430 -0.7
548 431 1.0
551 431 1.0
555 431 -1.0
557 431 -1.0
1220 431 1.0
552 432 -1.0
556 432 -1.0
559 432 -1.0
1242 432 1.0
553 433 1.0
555 433 -1.0
558 433 -1.0
1221 433 1.0
554 434 1.0
556 434 -1.0
560 434 -1.0
1243 434 1.0
563 435 -1.0
565 435 -0.65
561 436 1.0
564 436 1.0
574 436 -1.0
577 436 -1.0
1222 436 1.0
565 437 -1.0
570 437 -1.0
576 437 -1.0
581 437 -1.0
1244 437 1.0
568 438 -1.0
570 438 -0.65
566 439 1.0
569 439 1.0
575 439 -1.0
579 439 -1.0
1226 439 1.0
571 440 1.0
574 440 -1.0
578 440 -1.0
1223 440 1.0
572 441 1.0
575 441 -1.0
580 441 -1.0
1227 441 1.0
573 442 1.0
576 442 -1.0
582 442 -1.0
1245 442 1.0
583 443 -1.0
586 443 -1.0
588 443 -1.0
1228 443 1.0
583 444 1.0
587 444 -1.0
590 444 -1.0
1246 444 1.0
584 445 1.0
586 445 -1.0
589 445 -1.0
1229 445 1.0
585 446 1.0
587 446 -1.0
591 446 -1.0
1247 446 1.0
592 447 -1.0
595 447 -1.0
597 447 -1.0
1230 447 1.0
592 448 1.0
596 448 -1.0
599 448 -1.0
1248 448 1.0
593 449 1.0
595 449 -1.0
598 449 -1.0
1231 449 1.0
594 450 1.0
596 450 -1.0
600 450 -1.0
1249 450 1.0
603 451 -1.0
605 451 -0.75
601 452 1.0
604 452 1.0
608 452 -1.0
610 452 -1.0
1232 452 1.0
605 453 -1.0
609 453 -1.0
612 453 -1.0
1250 453 1.0
606 454 1.0
608 454 -1.0
611 454 -1.0
1233 454 1.0
607 455 1.0
609 455 -1.0
613 455 -1.0
1251 455 1.0
616 456 -1.0
618 456 -0.8
614 457 1.0
617 457 1.0
621 457 -1.0
623 457 -1.0
1234 457 1.0
618 458 -1.0
622 458 -1.0
625 458 -1.0
1252 458 1.0
619 459 1.0
621 459 -1.0
624 459 -1.0
1235 459 1.0
620 460 1.0
622 460 -1.0
626 460 -1.0
1253 460 1.0
629 461 -1.0
631 461 -0.85
627 462 1.0
630 462 1.0
634 462 -1.0
636 462 -1.0
1236 462 1.0
631 463 -1.0
635 463 -1.0
638 463 -1.0
1254 463 1.0
632 464 1.0
634 464 -1.0
637 464 -1.0
1237 464 1.0
633 465 1.0
635 465 -1.0
639 465 -1.0
1255 465 1.0
642 466 -1.0
644 466 -1.0
640 467 1.0
643 467 1.0
647 467 -1.0
649 467 -1.0
1256 467 1.0
644 468 -1.0
648 468 -1.0
651 468 -1.0
1260 468 1.0
645 469 1.0
647 469 -1.0
650 469 -1.0
1257 469 1.0
646 470 1.0
648 470 -1.0
652 470 -1.0
1261 470 1.0
655 471 -1.0
657 471 -1.2
653 472 1.0
656 472 1.0
660 472 -1.0
662 472 -1.0
1258 472 1.0
657 473 -1.0
661 473 -1.0
664 473 -1.0
1262 473 1.0
658 474 1.0
660 474 -1.0
663 474 -1.0
1259 474 1.0
659 475 1.0
661 475 -1.0
665 475 -1.0
1263 475 1.0
666 476 -0.75
669 476 -1.0
671 476 -1.0
1264 476 1.0
666 477 1.0
670 477 -1.0
673 477 -1.0
1272 477 1.0
667 478 1.0
669 478 -1.0
672 478 -1.0
1265 478 1.0
668 479 1.0
670 479 -1.0
674 479 -1.0
1273 479 1.0
677 480 -1.0
679 480 -1.5
675 481 1.0
678 481 1.0
682 481 -1.0
684 481 -1.0
1266 481 1.0
679 482 -1.0
683 482 -1.0
686 482 -1.0
1274 482 1.0
680 483 1.0
682 483 -1.0
685 483 -1.0
1267 483 1.0
681 484 1.0
683 484 -1.0
687 484 -1.0
1276 484 1.0
683 485 1.0
735 485 1.0
1158 485 1.0
688 486 -1.0
693 486 -1.0
696 486 -1.0
1268 486 1.0
688 487 1.0
689 487 1.0
695 487 -1.0
700 487 -1.0
1278 487 1.0
689 488 -0.5
694 488 -1.0
698 488 -1.0
1270 488 1.0
690 489 1.0
693 489 -1.0
697 489 -1.0
1269 489 1.0
691 490 1.0
694 490 -1.0
699 490 -1.0
1271 490 1.0
692 491 1.0
695 491 -1.0
701 491 -1.0
1279 491 1.0
704 492 -1.0
706 492 -1.25
702 493 1.0
705 493 1.0
709 493 -1.0
711 493 -1.0
1280 493 1.0
706 494 -1.0
710 494 -1.0
713 494 -1.0
1288 494 1.0
707 495 1.0
709 495 -1.0
712 495 -1.0
1281 495 1.0
708 496 1.0
710 496 -1.0
714 496 -1.0
1289 496 1.0
717 497 -1.0
719 497 -0.9
715 498 1.0
718 498 1.0
722 498 -1.0
724 498 -1.0
1282 498 1.0
719 499 -1.0
723 499 -1.0
726 499 -1.0
1290 499 1.0
720 500 1.0
722 500 -1.0
725 500 -1.0
1283 500 1.0
721 501 1.0
723 501 -1.0
727 501 -1.0
1291 501 1.0
730 502 -1.0
732 502 -1.0
728 503 1.0
731 503 1.0
735 503 -1.0
737 503 -1.0
1275 503 1.0
732 504 -1.0
736 504 -1.0
739 504 -1.0
1292 504 1.0
733 505 1.0
735 505 -1.0
738 505 -1.0
1277 505 1.0
734 506 1.0
736 506 -1.0
740 506 -1.0
1293 506 1.0
741 507 -0.9
744 507 -1.0
746 507 -1.0
1284 507 1.0
741 508 1.0
745 508 -1.0
748 508 -1.0
1294 508 1.0
742 509 1.0
744 509 -1.0
747 509 -1.0
1285 509 1.0
743 510 1.0
745 510 -1.0
749 510 -1.0
1295 510 1.0
750 511 -0.6
753 511 -1.0
755 511 -1.0
1286 511 1.0
750 512 1.0
754 512 -1.0
757 512 -1.0
1296 512 1.0
751 513 1.0
753 513 -1.0
756 513 -1.0
1287 513 1.0
752 514 1.0
754 514 -1.0
758 514 -1.0
1297 514 1.0

BCOORD
152
36 -0.4
37 -0.3
38 -0.2
39 -0.5
40 -0.2
41 -0.3
42 35.0
43 36.0
44 25.0
45 24.0
46 30.0
359 4000.0
360 -1.0
361 -1.0
362 -1.0
363 -1.0
364 -1.0
365 -1.0
366 -1.0
367 -1.0
399 40.0
401 3.71357206670431
412 40.0
414 4.45628648004517
421 4.45628648004517
423 3.34221486003388
434 4.45628648004517
436 2.54515263975353
446 4.45628648004517
448 30.0
450 15.0
461 3.34221486003388
463 1.83548069293539
474 3.34221486003388
476 1.32154609891348
487 2.54515263975353
489 1.26558121681553
496 15.0
498 13.5
505 15.0
507 9.0
518 15.0
520 3.04984759446376
530 1.83548069293539
532 20.0
534 20.0
545 1.32154609891348
547 0.842233385663186
558 1.26558121681553
560 0.572481933717686
578 1.26558121681553
580 33.5
582 2.30162356062425
589 9.0
591 9.0
598 9.0
600 9.0
611 3.04984759446376
613 1.04900943706034
624 3.04984759446376
626 1.11894339953103
637 3.04984759446376
639 1.18887736200171
650 1.18887736200171
652 0.78338879230327
663 1.18887736200171
665 0.940066550763924
672 0.940066550763924
674 0.705049913072943
685 0.940066550763924
687 0.994083415506506
697 0.940066550763924
699 30.0
701 15.0
712 0.705049913072943
714 0.666992981045719
725 0.705049913072943
727 0.480234946352917
738 0.994083415506506
740 0.690184503917672
747 15.0
749 13.5
756 15.0
758 9.0
759 -1.0
1032 1.0
1034 1.0
1036 1.0
1038 1.0
1040 1.0
1042 1.0
1044 1.0
1046 1.0
1048 1.0
1050 1.0
1052 1.0
1054 1.0
1056 1.0
1058 1.0
1060 1.0
1062 1.0
1064 1.0
1066 1.0
1068 1.0
1070 1.0
1072 1.0
1074 1.0
1076 1.0
1078 1.0
1080 1.0
1082 1.0
1084 1.0
1086 1.0
1088 1.0
1090 1.0
1092 1.0
1094 1.0
1096 40.0
1108 30.0
1126 20.0
1128 20.0
1156 30.0
1299 1.0
1301 1.0
1303 1.0
1305 1.0
1307 1.0
1309 1.0
1311 1.0
1313 1.0
1315 1.0
1317 1.0
1319 1.0
1321 1.0
1323 1.0
1325 1.0
1327 1.0
1329 1.0
1331 1.0
1333 1.0
1335 1.0
1337 1.0
1339 1.0
1341 1.0
1343 1.0
1345 1.0
1347 1.0
1349 1.0
1351 1.0
1353 1.0
1355 1.0
1357 1.0
